set-option :incremental "false")
(set-info :smt-lib-version "2.6")
(set-info :source "
    Spec# benchmarks.  Contributed by Leonardo de Moura and Michal Moskal.
  ")
(set-info :category "industrial")
(set-info :status UNSAT)
(set-info :notes "CVC4 always dumps the most general, all-supported logic (below), as some internals might require the use of a logic more general than the input.")
(set-logic ALL)
(declare-fun x (Int Int) Int)
(declare-fun true_1 () Int)
(declare-fun false_1 () Int)
(declare-fun intGreater (Int Int) Int)
(declare-fun intAtLeast (Int Int) Int)
(declare-fun intAtMost (Int Int) Int)
(declare-fun intLess (Int Int) Int)
(declare-fun anyNeq (Int Int) Int)
(declare-fun anyEqual (Int Int) Int)
(declare-fun boolNot (Int) Int)
(declare-fun boolOr (Int Int) Int)
(declare-fun boolAnd (Int Int) Int)
(declare-fun boolImplies (Int Int) Int)
(declare-fun boolIff (Int Int) Int)
(declare-fun select2 (Int Int Int) Int)
(declare-fun store2 (Int Int Int Int) Int)
(declare-fun select1 (Int Int) Int)
(declare-fun store1 (Int Int Int) Int)
(declare-fun Microsoft_Contracts_ICheckedException () Int)
(declare-fun AsInterface (Int) Int)
(declare-fun IsMemberlessType (Int) Int)
(declare-fun System_Object () Int)
(declare-fun System_String () Int)
(declare-fun inv () Int)
(declare-fun BaseClass (Int) Int)
(declare-fun localinv () Int)
(declare-fun IsHeap (Int) Int)
(declare-fun System_IEquatable_1___System_String () Int)
(declare-fun System_Collections_IEnumerable () Int)
(declare-fun System_Collections_Generic_IEnumerable_1___System_Char () Int)
(declare-fun System_IComparable_1___System_String () Int)
(declare-fun System_IConvertible () Int)
(declare-fun System_ICloneable () Int)
(declare-fun System_IComparable () Int)
(declare-fun AsImmutable (Int) Int)
(declare-fun IsImmutable (Int) Int)
(declare-fun AsDirectSubClass (Int Int) Int)
(declare-fun Microsoft_Contracts_ObjectInvariantException () Int)
(declare-fun AsMutable (Int) Int)
(declare-fun Microsoft_Contracts_GuardException () Int)
(declare-fun System_Exception () Int)
(declare-fun System_Runtime_InteropServices__Exception () Int)
(declare-fun System_Runtime_Serialization_ISerializable () Int)
(declare-fun RTE () Int)
(declare-fun RTE_MStackMaxSize () Int)
(declare-fun RTE_MStackBase () Int)
(declare-fun RTE_DPP () Int)
(declare-fun Length (Int) Int)
(declare-fun Memory_contents () Int)
(declare-fun RTE_Scratch () Int)
(declare-fun x_1 (Int Int) Int)
(declare-fun RTE_MSP () Int)
(declare-fun RTE_CSP () Int)
(declare-fun RTE_CallStack () Int)
(declare-fun RTE_Data () Int)
(declare-fun Memory_InSandbox_System_Int32 (Int Int Int) Int)
(declare-fun Memory_InSandbox_System_Int32_1 (Int Int) Int)
(declare-fun exposeVersion () Int)
(declare-fun allocated () Int)
(declare-fun typeof (Int) Int)
(declare-fun Memory () Int)
(declare-fun nullObject () Int)
(declare-fun AsPureObject (Int) Int)
(declare-fun FirstConsistentOwner () Int)
(declare-fun ownerRef () Int)
(declare-fun ownerFrame () Int)
(declare-fun PeerGroupPlaceholder () Int)
(declare-fun IsNotNull (Int Int) Int)
(declare-fun PurityAxiomsCanBeAssumed () Int)
(declare-fun System_Type () Int)
(declare-fun System_Reflection_IReflect () Int)
(declare-fun System_Runtime_InteropServices__Type () Int)
(declare-fun System_Reflection_MemberInfo () Int)
(declare-fun System_Runtime_InteropServices__MemberInfo () Int)
(declare-fun System_Reflection_ICustomAttributeProvider () Int)
(declare-fun Memory_get_cont_System_Int32 (Int Int Int) Int)
(declare-fun Memory_get_cont_System_Int32_1 (Int Int) Int)
(declare-fun System_Array () Int)
(declare-fun System_Collections_ICollection () Int)
(declare-fun System_Collections_IList () Int)
(declare-fun RTE_Instructions () Int)
(declare-fun AsNonNullRefField (Int Int) Int)
(declare-fun IntArray (Int Int) Int)
(declare-fun System_Int32 () Int)
(declare-fun DeclType (Int) Int)
(declare-fun AsRepField (Int Int) Int)
(declare-fun IncludedInModifiesStar (Int) Int)
(declare-fun IncludeInMainFrameCondition (Int) Int)
(declare-fun IsStaticField (Int) Int)
(declare-fun RTE_Program () Int)
(declare-fun RTE_RtnCode () Int)
(declare-fun AsRangeField (Int Int) Int)
(declare-fun RTE_CurrRTEMode () Int)
(declare-fun RTE_PC () Int)
(declare-fun RTE_C () Int)
(declare-fun RTE_Z () Int)
(declare-fun RTE_A () Int)
(declare-fun RTE_MStackMaxSize_1 (Int) Int)
(declare-fun RTE_MStackBase_1 (Int) Int)
(declare-fun Memory_contents_1 (Int) Int)
(declare-fun System_Byte () Int)
(declare-fun System_String_Equals_System_String_System_String (Int Int Int) Int)
(declare-fun System_String_IsInterned_System_String_notnull (Int Int) Int)
(declare-fun StringEquals (Int Int) Int)
(declare-fun System_String_Equals_System_String (Int Int Int) Int)
(declare-fun max (Int Int) Int)
(declare-fun min (Int Int) Int)
(declare-fun shr (Int Int) Int)
(declare-fun x_2 (Int Int) Int)
(declare-fun shl (Int Int) Int)
(declare-fun int_2147483647 () Int)
(declare-fun or_1 (Int Int) Int)
(declare-fun and_1 (Int Int) Int)
(declare-fun IfThenElse (Int Int Int) Int)
(declare-fun IntToInt (Int Int Int) Int)
(declare-fun InRange (Int Int) Int)
(declare-fun System_Char () Int)
(declare-fun int_18446744073709551615 () Int)
(declare-fun System_UInt64 () Int)
(declare-fun int_9223372036854775807 () Int)
(declare-fun int_m9223372036854775808 () Int)
(declare-fun System_Int64 () Int)
(declare-fun int_4294967295 () Int)
(declare-fun System_UInt32 () Int)
(declare-fun int_m2147483648 () Int)
(declare-fun System_UInt16 () Int)
(declare-fun System_Int16 () Int)
(declare-fun System_SByte () Int)
(declare-fun IsValueType (Int) Int)
(declare-fun System_IntPtr () Int)
(declare-fun System_UIntPtr () Int)
(declare-fun BoxTester (Int Int) Int)
(declare-fun Box (Int Int) Int)
(declare-fun Unbox (Int) Int)
(declare-fun UnboxedType (Int) Int)
(declare-fun BoxFunc (Int Int Int Int) Int)
(declare-fun FieldDependsOnFCO (Int Int Int) Int)
(declare-fun AsElementsPeerField (Int Int) Int)
(declare-fun ElementProxy (Int Int) Int)
(declare-fun AsElementsRepField (Int Int Int) Int)
(declare-fun AsPeerField (Int) Int)
(declare-fun StringLength (Int) Int)
(declare-fun AsOwner (Int Int) Int)
(declare-fun BeingConstructed () Int)
(declare-fun NonNullFieldsAreInitialized () Int)
(declare-fun AsRefField (Int Int) Int)
(declare-fun Is (Int Int) Int)
(declare-fun ClassRepr (Int) Int)
(declare-fun IsAllocated (Int Int) Int)
(declare-fun ValueArrayGet (Int Int) Int)
(declare-fun RefArrayGet (Int Int) Int)
(declare-fun StructGet (Int Int) Int)
(declare-fun As (Int Int) Int)
(declare-fun TypeObject (Int) Int)
(declare-fun TypeName (Int) Int)
(declare-fun System_Boolean () Int)
(declare-fun OneClassDown (Int Int) Int)
(declare-fun StructSet (Int Int Int) Int)
(declare-fun ElementProxyStruct (Int Int) Int)
(declare-fun elements () Int)
(declare-fun ValueArray (Int Int) Int)
(declare-fun NonNullRefArray (Int Int) Int)
(declare-fun ElementType (Int) Int)
(declare-fun RefArray (Int Int) Int)
(declare-fun NonNullRefArrayRaw (Int Int Int) Int)
(declare-fun Rank (Int) Int)
(declare-fun ArrayCategoryNonNullRef () Int)
(declare-fun ArrayCategory (Int) Int)
(declare-fun ArrayCategoryRef () Int)
(declare-fun ArrayCategoryInt () Int)
(declare-fun ArrayCategoryValue () Int)
(declare-fun UBound (Int Int) Int)
(declare-fun DimLength (Int Int) Int)
(declare-fun LBound (Int Int) Int)
(declare-fun IntArrayGet (Int Int) Int)
(declare-fun ArrayIndex (Int Int Int Int) Int)
(declare-fun ArrayIndexInvY (Int) Int)
(declare-fun ArrayIndexInvX (Int) Int)
(declare-fun RefArraySet (Int Int Int) Int)
(declare-fun IntArraySet (Int Int Int) Int)
(declare-fun ValueArraySet (Int Int Int) Int)
(declare-fun ClassReprInv (Int) Int)
(declare-fun SharingMode_LockProtected () Int)
(declare-fun SharingMode_Unshared () Int)
(declare-fun sharingMode () Int)
(declare-fun Heap_11 () Int)
(declare-fun Heap () Int)
(declare-fun this () Int)
(declare-fun stack0s () Int)
(declare-fun stack0s_1 () Int)
(declare-fun Heap_9 () Int)
(declare-fun stack0o_4 () Int)
(declare-fun stack0s_0 () Int)
(declare-fun Heap_10 () Int)
(declare-fun stack0o_3 () Int)
(declare-fun IsTokenForType (Int Int) Int)
(declare-fun stack0i_6 () Int)
(declare-fun Heap_8 () Int)
(declare-fun temp2_0 () Int)
(declare-fun Heap_7 () Int)
(declare-fun stack0i_5 () Int)
(declare-fun stack0i_2 () Int)
(declare-fun stack0i_4 () Int)
(declare-fun stack3i_3 () Int)
(declare-fun stack3i_4 () Int)
(declare-fun Heap_5 () Int)
(declare-fun call59866formal__result_0 () Int)
(declare-fun stack2i_0 () Int)
(declare-fun stack1i_5 () Int)
(declare-fun stack1i_7 () Int)
(declare-fun stack2o_1 () Int)
(declare-fun stack2o_2 () Int)
(declare-fun stack0o_1 () Int)
(declare-fun stack0o_2 () Int)
(declare-fun ActivityIndicator_3 () Int)
(declare-fun ActivityIndicator_5 () Int)
(declare-fun stack4i_0 () Int)
(declare-fun Heap_4 () Int)
(declare-fun HeapSucc (Int Int) Int)
(declare-fun Heap_3 () Int)
(declare-fun call59866formal__result () Int)
(declare-fun stack3i_2 () Int)
(declare-fun stack1i_4 () Int)
(declare-fun Heap_2 () Int)
(declare-fun stack0o_0 () Int)
(declare-fun stack1i_3 () Int)
(declare-fun Heap_1 () Int)
(declare-fun call59782formal__result_0 () Int)
(declare-fun stack2o_0 () Int)
(declare-fun stack3i_1 () Int)
(declare-fun call59782formal__result () Int)
(declare-fun stack3i_0 () Int)
(declare-fun stack1i_2 () Int)
(declare-fun stack1i_1 () Int)
(declare-fun stack3i () Int)
(declare-fun Heap_6 () Int)
(declare-fun stack2i () Int)
(declare-fun stack1i_6 () Int)
(declare-fun stack2o () Int)
(declare-fun stack0o () Int)
(declare-fun ActivityIndicator_4 () Int)
(declare-fun stack4i () Int)
(declare-fun stack0i_3 () Int)
(declare-fun stack1i_0 () Int)
(declare-fun stack0i_1 () Int)
(declare-fun stack0i_0 () Int)
(declare-fun temp1_0 () Int)
(declare-fun Heap_0 () Int)
(declare-fun stack1o_0 () Int)
(declare-fun stack1s_0 () Int)
(declare-fun local2 () Int)
(declare-fun __z () Real)
client connecting to: 127.0.0.1:8080 <0> 
client connected to: 127.0.0.1:8080 <4> 
client write request 
client sent: a(set-logic ALL)
(declare-fun x (Int Int) Int)
(declare-fun true_1 () Int)
(declare-fun false_1 () Int)
(declare-fun intGreater (Int Int) Int)
(declare-fun intAtLeast (Int Int) Int)
(declare-fun intAtMost (Int Int) Int)
(declare-fun intLess (Int Int) Int)
(declare-fun anyNeq (Int Int) Int)
(declare-fun anyEqual (Int Int) Int)
(declare-fun boolNot (Int) Int)
(declare-fun boolOr (Int Int) Int)
(declare-fun boolAnd (Int Int) Int)
(declare-fun boolImplies (Int Int) Int)
(declare-fun boolIff (Int Int) Int)
(declare-fun select2 (Int Int Int) Int)
(declare-fun store2 (Int Int Int Int) Int)
(declare-fun select1 (Int Int) Int)
(declare-fun store1 (Int Int Int) Int)
(declare-fun Microsoft_Contracts_ICheckedException () Int)
(declare-fun AsInterface (Int) Int)
(declare-fun IsMemberlessType (Int) Int)
(declare-fun System_Object () Int)
(declare-fun System_String () Int)
(declare-fun inv () Int)
(declare-fun BaseClass (Int) Int)
(declare-fun localinv () Int)
(declare-fun IsHeap (Int) Int)
(declare-fun System_IEquatable_1___System_String () Int)
(declare-fun System_Collections_IEnumerable () Int)
(declare-fun System_Collections_Generic_IEnumerable_1___System_Char () Int)
(declare-fun System_IComparable_1___System_String () Int)
(declare-fun System_IConvertible () Int)
(declare-fun System_ICloneable () Int)
(declare-fun System_IComparable () Int)
(declare-fun AsImmutable (Int) Int)
(declare-fun IsImmutable (Int) Int)
(declare-fun AsDirectSubClass (Int Int) Int)
(declare-fun Microsoft_Contracts_ObjectInvariantException () Int)
(declare-fun AsMutable (Int) Int)
(declare-fun Microsoft_Contracts_GuardException () Int)
(declare-fun System_Exception () Int)
(declare-fun System_Runtime_InteropServices__Exception () Int)
(declare-fun System_Runtime_Serialization_ISerializable () Int)
(declare-fun RTE () Int)
(declare-fun RTE_MStackMaxSize () Int)
(declare-fun RTE_MStackBase () Int)
(declare-fun RTE_DPP () Int)
(declare-fun Length (Int) Int)
(declare-fun Memory_contents () Int)
(declare-fun RTE_Scratch () Int)
(declare-fun x_1 (Int Int) Int)
(declare-fun RTE_MSP () Int)
(declare-fun RTE_CSP () Int)
(declare-fun RTE_CallStack () Int)
(declare-fun RTE_Data () Int)
(declare-fun Memory_InSandbox_System_Int32 (Int Int Int) Int)
(declare-fun Memory_InSandbox_System_Int32_1 (Int Int) Int)
(declare-fun exposeVersion () Int)
(declare-fun allocated () Int)
(declare-fun typeof (Int) Int)
(declare-fun Memory () Int)
(declare-fun nullObject () Int)
(declare-fun AsPureObject (Int) Int)
(declare-fun FirstConsistentOwner () Int)
(declare-fun ownerRef () Int)
(declare-fun ownerFrame () Int)
(declare-fun PeerGroupPlaceholder () Int)
(declare-fun IsNotNull (Int Int) Int)
(declare-fun PurityAxiomsCanBeAssumed () Int)
(declare-fun System_Type () Int)
(declare-fun System_Reflection_IReflect () Int)
(declare-fun System_Runtime_InteropServices__Type () Int)
(declare-fun System_Reflection_MemberInfo () Int)
(declare-fun System_Runtime_InteropServices__MemberInfo () Int)
(declare-fun System_Reflection_ICustomAttributeProvider () Int)
(declare-fun Memory_get_cont_System_Int32 (Int Int Int) Int)
(declare-fun Memory_get_cont_System_Int32_1 (Int Int) Int)
(declare-fun System_Array () Int)
(declare-fun System_Collections_ICollection () Int)
(declare-fun System_Collections_IList () Int)
(declare-fun RTE_Instructions () Int)
(declare-fun AsNonNullRefField (Int Int) Int)
(declare-fun IntArray (Int Int) Int)
(declare-fun System_Int32 () Int)
(declare-fun DeclType (Int) Int)
(declare-fun AsRepField (Int Int) Int)
(declare-fun IncludedInModifiesStar (Int) Int)
(declare-fun IncludeInMainFrameCondition (Int) Int)
(declare-fun IsStaticField (Int) Int)
(declare-fun RTE_Program () Int)
(declare-fun RTE_RtnCode () Int)
(declare-fun AsRangeField (Int Int) Int)
(declare-fun RTE_CurrRTEMode () Int)
(declare-fun RTE_PC () Int)
(declare-fun RTE_C () Int)
(declare-fun RTE_Z () Int)
(declare-fun RTE_A () Int)
(declare-fun RTE_MStackMaxSize_1 (Int) Int)
(declare-fun RTE_MStackBase_1 (Int) Int)
(declare-fun Memory_contents_1 (Int) Int)
(declare-fun System_Byte () Int)
(declare-fun System_String_Equals_System_String_System_String (Int Int Int) Int)
(declare-fun System_String_IsInterned_System_String_notnull (Int Int) Int)
(declare-fun StringEquals (Int Int) Int)
(declare-fun System_String_Equals_System_String (Int Int Int) Int)
(declare-fun max (Int Int) Int)
(declare-fun min (Int Int) Int)
(declare-fun shr (Int Int) Int)
(declare-fun x_2 (Int Int) Int)
(declare-fun shl (Int Int) Int)
(declare-fun int_2147483647 () Int)
(declare-fun or_1 (Int Int) Int)
(declare-fun and_1 (Int Int) Int)
(declare-fun IfThenElse (Int Int Int) Int)
(declare-fun IntToInt (Int Int Int) Int)
(declare-fun InRange (Int Int) Int)
(declare-fun System_Char () Int)
(declare-fun int_18446744073709551615 () Int)
(declare-fun System_UInt64 () Int)
(declare-fun int_9223372036854775807 () Int)
(declare-fun int_m9223372036854775808 () Int)
(declare-fun System_Int64 () Int)
(declare-fun int_4294967295 () Int)
(declare-fun System_UInt32 () Int)
(declare-fun int_m2147483648 () Int)
(declare-fun System_UInt16 () Int)
(declare-fun System_Int16 () Int)
(declare-fun System_SByte () Int)
(declare-fun IsValueType (Int) Int)
(declare-fun System_IntPtr () Int)
(declare-fun System_UIntPtr () Int)
(declare-fun BoxTester (Int Int) Int)
(declare-fun Box (Int Int) Int)
(declare-fun Unbox (Int) Int)
(declare-fun UnboxedType (Int) Int)
(declare-fun BoxFunc (Int Int Int Int) Int)
(declare-fun FieldDependsOnFCO (Int Int Int) Int)
(declare-fun AsElementsPeerField (Int Int) Int)
(declare-fun ElementProxy (Int Int) Int)
(declare-fun AsElementsRepField (Int Int Int) Int)
(declare-fun AsPeerField (Int) Int)
(declare-fun StringLength (Int) Int)
(declare-fun AsOwner (Int Int) Int)
(declare-fun BeingConstructed () Int)
(declare-fun NonNullFieldsAreInitialized () Int)
(declare-fun AsRefField (Int Int) Int)
(declare-fun Is (Int Int) Int)
(declare-fun ClassRepr (Int) Int)
(declare-fun IsAllocated (Int Int) Int)
(declare-fun ValueArrayGet (Int Int) Int)
(declare-fun RefArrayGet (Int Int) Int)
(declare-fun StructGet (Int Int) Int)
(declare-fun As (Int Int) Int)
(declare-fun TypeObject (Int) Int)
(declare-fun TypeName (Int) Int)
(declare-fun System_Boolean () Int)
(declare-fun OneClassDown (Int Int) Int)
(declare-fun StructSet (Int Int Int) Int)
(declare-fun ElementProxyStruct (Int Int) Int)
(declare-fun elements () Int)
(declare-fun ValueArray (Int Int) Int)
(declare-fun NonNullRefArray (Int Int) Int)
(declare-fun ElementType (Int) Int)
(declare-fun RefArray (Int Int) Int)
(declare-fun NonNullRefArrayRaw (Int Int Int) Int)
(declare-fun Rank (Int) Int)
(declare-fun ArrayCategoryNonNullRef () Int)
(declare-fun ArrayCategory (Int) Int)
(declare-fun ArrayCategoryRef () Int)
(declare-fun ArrayCategoryInt () Int)
(declare-fun ArrayCategoryValue () Int)
(declare-fun UBound (Int Int) Int)
(declare-fun DimLength (Int Int) Int)
(declare-fun LBound (Int Int) Int)
(declare-fun IntArrayGet (Int Int) Int)
(declare-fun ArrayIndex (Int Int Int Int) Int)
(declare-fun ArrayIndexInvY (Int) Int)
(declare-fun ArrayIndexInvX (Int) Int)
(declare-fun RefArraySet (Int Int Int) Int)
(declare-fun IntArraySet (Int Int Int) Int)
(declare-fun ValueArraySet (Int Int Int) Int)
(declare-fun ClassReprInv (Int) Int)
(declare-fun SharingMode_LockProtected () Int)
(declare-fun SharingMode_Unshared () Int)
(declare-fun sharingMode () Int)
(declare-fun Heap_11 () Int)
(declare-fun Heap () Int)
(declare-fun this () Int)
(declare-fun stack0s () Int)
(declare-fun stack0s_1 () Int)
(declare-fun Heap_9 () Int)
(declare-fun stack0o_4 () Int)
(declare-fun stack0s_0 () Int)
(declare-fun Heap_10 () Int)
(declare-fun stack0o_3 () Int)
(declare-fun IsTokenForType (Int Int) Int)
(declare-fun stack0i_6 () Int)
(declare-fun Heap_8 () Int)
(declare-fun temp2_0 () Int)
(declare-fun Heap_7 () Int)
(declare-fun stack0i_5 () Int)
(declare-fun stack0i_2 () Int)
(declare-fun stack0i_4 () Int)
(declare-fun stack3i_3 () Int)
(declare-fun stack3i_4 () Int)
(declare-fun Heap_5 () Int)
(declare-fun call59866formal__result_0 () Int)
(declare-fun stack2i_0 () Int)
(declare-fun stack1i_5 () Int)
(declare-fun stack1i_7 () Int)
(declare-fun stack2o_1 () Int)
(declare-fun stack2o_2 () Int)
(declare-fun stack0o_1 () Int)
(declare-fun stack0o_2 () Int)
(declare-fun ActivityIndicator_3 () Int)
(declare-fun ActivityIndicator_5 () Int)
(declare-fun stack4i_0 () Int)
(declare-fun Heap_4 () Int)
(declare-fun HeapSucc (Int Int) Int)
(declare-fun Heap_3 () Int)
(declare-fun call59866formal__result () Int)
(declare-fun stack3i_2 () Int)
(declare-fun stack1i_4 () Int)
(declare-fun Heap_2 () Int)
(declare-fun stack0o_0 () Int)
(declare-fun stack1i_3 () Int)
(declare-fun Heap_1 () Int)
(declare-fun call59782formal__result_0 () Int)
(declare-fun stack2o_0 () Int)
(declare-fun stack3i_1 () Int)
(declare-fun call59782formal__result () Int)
(declare-fun stack3i_0 () Int)
(declare-fun stack1i_2 () Int)
(declare-fun stack1i_1 () Int)
(declare-fun stack3i () Int)
(declare-fun Heap_6 () Int)
(declare-fun stack2i () Int)
(declare-fun stack1i_6 () Int)
(declare-fun stack2o () Int)
(declare-fun stack0o () Int)
(declare-fun ActivityIndicator_4 () Int)
(declare-fun stack4i () Int)
(declare-fun stack0i_3 () Int)
(declare-fun stack1i_0 () Int)
(declare-fun stack0i_1 () Int)
(declare-fun stack0i_0 () Int)
(declare-fun temp1_0 () Int)
(declare-fun Heap_0 () Int)
(declare-fun stack1o_0 () Int)
(declare-fun stack1s_0 () Int)
(declare-fun local2 () Int)
(declare-fun __z () Real)
